VALUE 1535
1 513
4 1028
6 1030
7 1031
10 1034
11 1035
13 1037
16 1040
18 1042
19 1043
21 1045
24 1048
25 1049
28 1052
30 1054
31 1055
34 1058
35 1059
37 1061
40 1064
41 1065
44 1068
46 1070
47 1071
49 1073
52 1076
54 1078
55 1079
58 1082
59 1083
61 1085
64 1088
66 1090
67 1091
69 1093
72 1096
73 1097
76 1100
78 1102
79 1103
81 1105
84 1108
86 1110
87 1111
90 1114
91 1115
93 1117
96 1120
97 1121
100 1124
102 1126
103 1127
106 1130
107 1131
109 1133
112 1136
114 1138
115 1139
117 1141
120 1144
121 1145
124 1148
126 1150
127 1151
130 1154
131 1155
133 1157
136 1160
137 1161
140 1164
142 1166
143 1167
145 1169
148 1172
150 1174
151 1175
154 1178
155 1179
157 1181
160 1184
161 1185
164 1188
166 1190
167 1191
170 1194
171 1195
173 1197
176 1200
178 1202
179 1203
181 1205
184 1208
185 1209
188 1212
190 1214
191 1215
193 1217
196 1220
198 1222
199 1223
202 1226
203 1227
205 1229
208 1232
210 1234
211 1235
213 1237
216 1240
217 1241
220 1244
222 1246
223 1247
226 1250
227 1251
229 1253
232 1256
233 1257
236 1260
238 1262
239 1263
241 1265
244 1268
246 1270
247 1271
250 1274
251 1275
253 1277
256 1280
258 1282
259 1283
261 1285
264 1288
265 1289
268 1292
270 1294
271 1295
273 1297
276 1300
278 1302
279 1303
282 1306
283 1307
285 1309
288 1312
289 1313
292 1316
294 1318
295 1319
298 1322
299 1323
301 1325
304 1328
306 1330
307 1331
309 1333
312 1336
313 1337
316 1340
318 1342
319 1343
321 1345
324 1348
326 1350
327 1351
330 1354
331 1355
333 1357
336 1360
338 1362
339 1363
341 1365
344 1368
345 1369
348 1372
350 1374
351 1375
354 1378
355 1379
357 1381
360 1384
361 1385
364 1388
366 1390
367 1391
369 1393
372 1396
374 1398
375 1399
378 1402
379 1403
381 1405
384 1408
385 1409
388 1412
390 1414
391 1415
394 1418
395 1419
397 1421
400 1424
402 1426
403 1427
405 1429
408 1432
409 1433
412 1436
414 1438
415 1439
418 1442
419 1443
421 1445
424 1448
425 1449
428 1452
430 1454
431 1455
433 1457
436 1460
438 1462
439 1463
442 1466
443 1467
445 1469
448 1472
450 1474
451 1475
453 1477
456 1480
457 1481
460 1484
462 1486
463 1487
465 1489
468 1492
470 1494
471 1495
474 1498
475 1499
477 1501
480 1504
481 1505
484 1508
486 1510
487 1511
490 1514
491 1515
493 1517
496 1520
498 1522
499 1523
501 1525
504 1528
505 1529
508 1532
510 1534
511 1535
513 1537
514 1538
515 1539
517 1541
520 1544
521 1545
524 1548
526 1550
527 1551
529 1553
532 1556
534 1558
535 1559
538 1562
539 1563
541 1565
544 1568
545 1569
548 1572
550 1574
551 1575
554 1578
555 1579
557 1581
560 1584
562 1586
563 1587
565 1589
568 1592
569 1593
572 1596
574 1598
575 1599
577 1601
580 1604
582 1606
583 1607
586 1610
587 1611
589 1613
592 1616
594 1618
595 1619
597 1621
600 1624
601 1625
604 1628
606 1630
607 1631
610 1634
611 1635
613 1637
616 1640
617 1641
620 1644
622 1646
623 1647
625 1649
628 1652
630 1654
631 1655
634 1658
635 1659
637 1661
640 1664
641 1665
644 1668
646 1670
647 1671
650 1674
651 1675
653 1677
656 1680
658 1682
659 1683
661 1685
664 1688
665 1689
668 1692
670 1694
671 1695
674 1698
675 1699
677 1701
680 1704
681 1705
684 1708
686 1710
687 1711
689 1713
692 1716
694 1718
695 1719
698 1722
699 1723
701 1725
704 1728
706 1730
707 1731
709 1733
712 1736
713 1737
716 1740
718 1742
719 1743
721 1745
724 1748
726 1750
727 1751
730 1754
731 1755
733 1757
736 1760
737 1761
740 1764
742 1766
743 1767
746 1770
747 1771
749 1773
752 1776
754 1778
755 1779
757 1781
760 1784
761 1785
764 1788
766 1790
767 1791
769 1793
772 1796
774 1798
775 1799
778 1802
779 1803
781 1805
784 1808
786 1810
787 1811
789 1813
792 1816
793 1817
796 1820
798 1822
799 1823
802 1826
803 1827
805 1829
808 1832
809 1833
812 1836
814 1838
815 1839
817 1841
820 1844
822 1846
823 1847
826 1850
827 1851
829 1853
832 1856
834 1858
835 1859
837 1861
840 1864
841 1865
844 1868
846 1870
847 1871
849 1873
852 1876
854 1878
855 1879
858 1882
859 1883
861 1885
864 1888
865 1889
868 1892
870 1894
871 1895
874 1898
875 1899
877 1901
880 1904
882 1906
883 1907
885 1909
888 1912
889 1913
892 1916
894 1918
895 1919
898 1922
899 1923
901 1925
904 1928
905 1929
908 1932
910 1934
911 1935
913 1937
916 1940
918 1942
919 1943
922 1946
923 1947
925 1949
928 1952
929 1953
932 1956
934 1958
935 1959
938 1962
939 1963
941 1965
944 1968
946 1970
947 1971
949 1973
952 1976
953 1977
956 1980
958 1982
959 1983
961 1985
964 1988
966 1990
967 1991
970 1994
971 1995
973 1997
976 2000
978 2002
979 2003
981 2005
984 2008
985 2009
988 2012
990 2014
991 2015
994 2018
995 2019
997 2021
1000 2024
1001 2025
1004 2028
1006 2030
1007 2031
1009 2033
1012 2036
1014 2038
1015 2039
1018 2042
1019 2043
1021 2045
1023 1024
1023 2047
1026 1538
1027 1539
1028 1540
1029 1541
1030 1542
1031 1543
1032 1544
1033 1545
1034 1546
1035 1547
1036 1548
1037 1549
1038 1550
1039 1551
1040 1552
1041 1553
1042 1554
1043 1555
1044 1556
1045 1557
1046 1558
1047 1559
1048 1560
1049 1561
1050 1562
1051 1563
1052 1564
1053 1565
1054 1566
1055 1567
1056 1568
1057 1569
1058 1570
1059 1571
1060 1572
1061 1573
1062 1574
1063 1575
1064 1576
1065 1577
1066 1578
1067 1579
1068 1580
1069 1581
1070 1582
1071 1583
1072 1584
1073 1585
1074 1586
1075 1587
1076 1588
1077 1589
1078 1590
1079 1591
1080 1592
1081 1593
1082 1594
1083 1595
1084 1596
1085 1597
1086 1598
1087 1599
1088 1600
1089 1601
1090 1602
1091 1603
1092 1604
1093 1605
1094 1606
1095 1607
1096 1608
1097 1609
1098 1610
1099 1611
1100 1612
1101 1613
1102 1614
1103 1615
1104 1616
1105 1617
1106 1618
1107 1619
1108 1620
1109 1621
1110 1622
1111 1623
1112 1624
1113 1625
1114 1626
1115 1627
1116 1628
1117 1629
1118 1630
1119 1631
1120 1632
1121 1633
1122 1634
1123 1635
1124 1636
1125 1637
1126 1638
1127 1639
1128 1640
1129 1641
1130 1642
1131 1643
1132 1644
1133 1645
1134 1646
1135 1647
1136 1648
1137 1649
1138 1650
1139 1651
1140 1652
1141 1653
1142 1654
1143 1655
1144 1656
1145 1657
1146 1658
1147 1659
1148 1660
1149 1661
1150 1662
1151 1663
1152 1664
1153 1665
1154 1666
1155 1667
1156 1668
1157 1669
1158 1670
1159 1671
1160 1672
1161 1673
1162 1674
1163 1675
1164 1676
1165 1677
1166 1678
1167 1679
1168 1680
1169 1681
1170 1682
1171 1683
1172 1684
1173 1685
1174 1686
1175 1687
1176 1688
1177 1689
1178 1690
1179 1691
1180 1692
1181 1693
1182 1694
1183 1695
1184 1696
1185 1697
1186 1698
1187 1699
1188 1700
1189 1701
1190 1702
1191 1703
1192 1704
1193 1705
1194 1706
1195 1707
1196 1708
1197 1709
1198 1710
1199 1711
1200 1712
1201 1713
1202 1714
1203 1715
1204 1716
1205 1717
1206 1718
1207 1719
1208 1720
1209 1721
1210 1722
1211 1723
1212 1724
1213 1725
1214 1726
1215 1727
1216 1728
1217 1729
1218 1730
1219 1731
1220 1732
1221 1733
1222 1734
1223 1735
1224 1736
1225 1737
1226 1738
1227 1739
1228 1740
1229 1741
1230 1742
1231 1743
1232 1744
1233 1745
1234 1746
1235 1747
1236 1748
1237 1749
1238 1750
1239 1751
1240 1752
1241 1753
1242 1754
1243 1755
1244 1756
1245 1757
1246 1758
1247 1759
1248 1760
1249 1761
1250 1762
1251 1763
1252 1764
1253 1765
1254 1766
1255 1767
1256 1768
1257 1769
1258 1770
1259 1771
1260 1772
1261 1773
1262 1774
1263 1775
1264 1776
1265 1777
1266 1778
1267 1779
1268 1780
1269 1781
1270 1782
1271 1783
1272 1784
1273 1785
1274 1786
1275 1787
1276 1788
1277 1789
1278 1790
1279 1791
1280 1792
1281 1793
1282 1794
1283 1795
1284 1796
1285 1797
1286 1798
1287 1799
1288 1800
1289 1801
1290 1802
1291 1803
1292 1804
1293 1805
1294 1806
1295 1807
1296 1808
1297 1809
1298 1810
1299 1811
1300 1812
1301 1813
1302 1814
1303 1815
1304 1816
1305 1817
1306 1818
1307 1819
1308 1820
1309 1821
1310 1822
1311 1823
1312 1824
1313 1825
1314 1826
1315 1827
1316 1828
1317 1829
1318 1830
1319 1831
1320 1832
1321 1833
1322 1834
1323 1835
1324 1836
1325 1837
1326 1838
1327 1839
1328 1840
1329 1841
1330 1842
1331 1843
1332 1844
1333 1845
1334 1846
1335 1847
1336 1848
1337 1849
1338 1850
1339 1851
1340 1852
1341 1853
1342 1854
1343 1855
1344 1856
1345 1857
1346 1858
1347 1859
1348 1860
1349 1861
1350 1862
1351 1863
1352 1864
1353 1865
1354 1866
1355 1867
1356 1868
1357 1869
1358 1870
1359 1871
1360 1872
1361 1873
1362 1874
1363 1875
1364 1876
1365 1877
1366 1878
1367 1879
1368 1880
1369 1881
1370 1882
1371 1883
1372 1884
1373 1885
1374 1886
1375 1887
1376 1888
1377 1889
1378 1890
1379 1891
1380 1892
1381 1893
1382 1894
1383 1895
1384 1896
1385 1897
1386 1898
1387 1899
1388 1900
1389 1901
1390 1902
1391 1903
1392 1904
1393 1905
1394 1906
1395 1907
1396 1908
1397 1909
1398 1910
1399 1911
1400 1912
1401 1913
1402 1914
1403 1915
1404 1916
1405 1917
1406 1918
1407 1919
1408 1920
1409 1921
1410 1922
1411 1923
1412 1924
1413 1925
1414 1926
1415 1927
1416 1928
1417 1929
1418 1930
1419 1931
1420 1932
1421 1933
1422 1934
1423 1935
1424 1936
1425 1937
1426 1938
1427 1939
1428 1940
1429 1941
1430 1942
1431 1943
1432 1944
1433 1945
1434 1946
1435 1947
1436 1948
1437 1949
1438 1950
1439 1951
1440 1952
1441 1953
1442 1954
1443 1955
1444 1956
1445 1957
1446 1958
1447 1959
1448 1960
1449 1961
1450 1962
1451 1963
1452 1964
1453 1965
1454 1966
1455 1967
1456 1968
1457 1969
1458 1970
1459 1971
1460 1972
1461 1973
1462 1974
1463 1975
1464 1976
1465 1977
1466 1978
1467 1979
1468 1980
1469 1981
1470 1982
1471 1983
1472 1984
1473 1985
1474 1986
1475 1987
1476 1988
1477 1989
1478 1990
1479 1991
1480 1992
1481 1993
1482 1994
1483 1995
1484 1996
1485 1997
1486 1998
1487 1999
1488 2000
1489 2001
1490 2002
1491 2003
1492 2004
1493 2005
1494 2006
1495 2007
1496 2008
1497 2009
1498 2010
1499 2011
1500 2012
1501 2013
1502 2014
1503 2015
1504 2016
1505 2017
1506 2018
1507 2019
1508 2020
1509 2021
1510 2022
1511 2023
1512 2024
1513 2025
1514 2026
1515 2027
1516 2028
1517 2029
1518 2030
1519 2031
1520 2032
1521 2033
1522 2034
1523 2035
1524 2036
1525 2037
1526 2038
1527 2039
1528 2040
1529 2041
1530 2042
1531 2043
1532 2044
1533 2045
1534 2046
1535 1536
1535 2047
1537 1793
1538 1794
1539 1795
1540 1796
1541 1797
1542 1798
1543 1799
1544 1800
1545 1801
1546 1802
1547 1803
1548 1804
1549 1805
1550 1806
1551 1807
1552 1808
1553 1809
1554 1810
1555 1811
1556 1812
1557 1813
1558 1814
1559 1815
1560 1816
1561 1817
1562 1818
1563 1819
1564 1820
1565 1821
1566 1822
1567 1823
1568 1824
1569 1825
1570 1826
1571 1827
1572 1828
1573 1829
1574 1830
1575 1831
1576 1832
1577 1833
1578 1834
1579 1835
1580 1836
1581 1837
1582 1838
1583 1839
1584 1840
1585 1841
1586 1842
1587 1843
1588 1844
1589 1845
1590 1846
1591 1847
1592 1848
1593 1849
1594 1850
1595 1851
1596 1852
1597 1853
1598 1854
1599 1855
1600 1856
1601 1857
1602 1858
1603 1859
1604 1860
1605 1861
1606 1862
1607 1863
1608 1864
1609 1865
1610 1866
1611 1867
1612 1868
1613 1869
1614 1870
1615 1871
1616 1872
1617 1873
1618 1874
1619 1875
1620 1876
1621 1877
1622 1878
1623 1879
1624 1880
1625 1881
1626 1882
1627 1883
1628 1884
1629 1885
1630 1886
1631 1887
1632 1888
1633 1889
1634 1890
1635 1891
1636 1892
1637 1893
1638 1894
1639 1895
1640 1896
1641 1897
1642 1898
1643 1899
1644 1900
1645 1901
1646 1902
1647 1903
1648 1904
1649 1905
1650 1906
1651 1907
1652 1908
1653 1909
1654 1910
1655 1911
1656 1912
1657 1913
1658 1914
1659 1915
1660 1916
1661 1917
1662 1918
1663 1919
1664 1920
1665 1921
1666 1922
1667 1923
1668 1924
1669 1925
1670 1926
1671 1927
1672 1928
1673 1929
1674 1930
1675 1931
1676 1932
1677 1933
1678 1934
1679 1935
1680 1936
1681 1937
1682 1938
1683 1939
1684 1940
1685 1941
1686 1942
1687 1943
1688 1944
1689 1945
1690 1946
1691 1947
1692 1948
1693 1949
1694 1950
1695 1951
1696 1952
1697 1953
1698 1954
1699 1955
1700 1956
1701 1957
1702 1958
1703 1959
1704 1960
1705 1961
1706 1962
1707 1963
1708 1964
1709 1965
1710 1966
1711 1967
1712 1968
1713 1969
1714 1970
1715 1971
1716 1972
1717 1973
1718 1974
1719 1975
1720 1976
1721 1977
1722 1978
1723 1979
1724 1980
1725 1981
1726 1982
1727 1983
1728 1984
1729 1985
1730 1986
1731 1987
1732 1988
1733 1989
1734 1990
1735 1991
1736 1992
1737 1993
1738 1994
1739 1995
1740 1996
1741 1997
1742 1998
1743 1999
1744 2000
1745 2001
1746 2002
1747 2003
1748 2004
1749 2005
1750 2006
1751 2007
1752 2008
1753 2009
1754 2010
1755 2011
1756 2012
1757 2013
1758 2014
1759 2015
1760 2016
1761 2017
1762 2018
1763 2019
1764 2020
1765 2021
1766 2022
1767 2023
1768 2024
1769 2025
1770 2026
1771 2027
1772 2028
1773 2029
1774 2030
1775 2031
1776 2032
1777 2033
1778 2034
1779 2035
1780 2036
1781 2037
1782 2038
1783 2039
1784 2040
1785 2041
1786 2042
1787 2043
1788 2044
1789 2045
1790 2046
1791 1792
1791 2047
1793 1921
1794 1922
1795 1923
1796 1924
1797 1925
1798 1926
1799 1927
1800 1928
1801 1929
1802 1930
1803 1931
1804 1932
1805 1933
1806 1934
1807 1935
1808 1936
1809 1937
1810 1938
1811 1939
1812 1940
1813 1941
1814 1942
1815 1943
1816 1944
1817 1945
1818 1946
1819 1947
1820 1948
1821 1949
1822 1950
1823 1951
1824 1952
1825 1953
1826 1954
1827 1955
1828 1956
1829 1957
1830 1958
1831 1959
1832 1960
1833 1961
1834 1962
1835 1963
1836 1964
1837 1965
1838 1966
1839 1967
1840 1968
1841 1969
1842 1970
1843 1971
1844 1972
1845 1973
1846 1974
1847 1975
1848 1976
1849 1977
1850 1978
1851 1979
1852 1980
1853 1981
1854 1982
1855 1983
1856 1984
1857 1985
1858 1986
1859 1987
1860 1988
1861 1989
1862 1990
1863 1991
1864 1992
1865 1993
1866 1994
1867 1995
1868 1996
1869 1997
1870 1998
1871 1999
1872 2000
1873 2001
1874 2002
1875 2003
1876 2004
1877 2005
1878 2006
1879 2007
1880 2008
1881 2009
1882 2010
1883 2011
1884 2012
1885 2013
1886 2014
1887 2015
1888 2016
1889 2017
1890 2018
1891 2019
1892 2020
1893 2021
1894 2022
1895 2023
1896 2024
1897 2025
1898 2026
1899 2027
1900 2028
1901 2029
1902 2030
1903 2031
1904 2032
1905 2033
1906 2034
1907 2035
1908 2036
1909 2037
1910 2038
1911 2039
1912 2040
1913 2041
1914 2042
1915 2043
1916 2044
1917 2045
1918 2046
1919 1920
1919 2047
1921 1985
1922 1986
1923 1987
1924 1988
1925 1989
1926 1990
1927 1991
1928 1992
1929 1993
1930 1994
1931 1995
1932 1996
1933 1997
1934 1998
1935 1999
1936 2000
1937 2001
1938 2002
1939 2003
1940 2004
1941 2005
1942 2006
1943 2007
1944 2008
1945 2009
1946 2010
1947 2011
1948 2012
1949 2013
1950 2014
1951 2015
1952 2016
1953 2017
1954 2018
1955 2019
1956 2020
1957 2021
1958 2022
1959 2023
1960 2024
1961 2025
1962 2026
1963 2027
1964 2028
1965 2029
1966 2030
1967 2031
1968 2032
1969 2033
1970 2034
1971 2035
1972 2036
1973 2037
1974 2038
1975 2039
1976 2040
1977 2041
1978 2042
1979 2043
1980 2044
1981 2045
1982 2046
1983 1984
1983 2047
1985 2017
1986 2018
1987 2019
1988 2020
1989 2021
1990 2022
1991 2023
1992 2024
1993 2025
1994 2026
1995 2027
1996 2028
1997 2029
1998 2030
1999 2031
2000 2032
2001 2033
2002 2034
2003 2035
2004 2036
2005 2037
2006 2038
2007 2039
2008 2040
2009 2041
2010 2042
2011 2043
2012 2044
2013 2045
2014 2046
2015 2016
2015 2047
2017 2033
2018 2034
2019 2035
2020 2036
2021 2037
2022 2038
2023 2039
2024 2040
2025 2041
2026 2042
2027 2043
2028 2044
2029 2045
2030 2046
2031 2032
2031 2047
2033 2041
2034 2038
2035 2039
2036 2044
2037 2039
2038 2046
2039 2040
2039 2047
2041 2043
2042 2046
2043 2044
2043 2047
2045 2046
2045 2047